

param p := 
0 2
1 2
2 2
3 2
4 1
5 2
6 1
7 2
8 1
9 2
10 1
11 2
12 1
13 2
14 1
15 2
16 1
17 2
18 1
19 2
20 1
21 2
22 1
23 2
;

param G_c :=
0        49608.891225284948
1        50000.000000005806
2        45327.578437050339
3        25002.510520105159
4        2.5105201051589532
;


param G_d :=
0        -2.4509038034053736
1        -25002.450903803401
2        -45327.578371649826
3        -50000.000000005828
4        -49997.482018608542
;


let max_SOC[21] := 0;